NAME : 3C_40_50-03.15523.tour
COMMENT : Cost = 0_15523
COMMENT : Found by LKH [Keld Helsgaun] Thu Sep 14 11:32:24 2017
TYPE : TOUR
DIMENSION : 50
TOUR_SECTION
1
27
5
13
44
25
30
35
36
10
49
11
12
37
20
8
47
2
31
34
4
43
29
41
3
14
46
28
19
6
7
45
22
23
15
16
50
9
18
17
39
38
48
21
33
32
42
26
40
24
-1
EOF
